100
128
33
18
53
51
62
29
5
43
58
3
21
37
21
4
34
18
24
55
30
33
36
54
17
1
1
32
35
24
22
29
6
13
1
21
37
21
3
4
39
2
1
20
47
23
25
20
38
2
1
26
35
4
22
49
24
22
28
17
58
62
44
49
16
40
50
46
41
49
45
59
51
50
60
42
24
2
27
2
47
8
49
46
4
41
21
64
5
64
1
45
32
26
30
1
64
37
39
39
16
3